# mpirun --allow-run-as-root -np 2 /usr/local/bin/abinit aiida.in > aiida.out
##############################################
####                SECTION: basic               
##############################################
 ecut 10.0
 nstep 300
 nsppol 1
 occopt 3
 tolvrs 1e-10
 nshiftk 1
 ngkpt 20 20 20
 kptopt 1
 shiftk    0.5    0.5    0.5
##############################################
####                SECTION: files               
##############################################
 pseudos "Si.psp8"
 pp_dirpath "./"
##############################################
####               SECTION: gstate               
##############################################
 fband 2.0
 nspden 1
 tsmear 0.005
 chkprim 0
 nspinor 1
 chksymbreak 0
##############################################
####                SECTION: paral               
##############################################
 autoparal 1
##############################################
####                 SECTION: paw                
##############################################
 pawecutdg 20.0
##############################################
####                 SECTION: rlx                
##############################################
 ecutsm 0.5
 ionmov 22
 tolmxf 5e-05
 dilatmx 1.0
 optcell 0
 restartxf 0
##############################################
####                  STRUCTURE                  
##############################################
 natom 2
 ntypat 1
 typat 1 1
 znucl 14
 xred
    0.0000000000    0.0000000000    0.0000000000
    0.2500000000    0.2500000000    0.2500000000
 acell    1.0    1.0    1.0
 rprim
    7.3077409993    0.0000000000    0.0000000000
    3.6538704996    6.3286893497    0.0000000000
    3.6538704996    2.1095631166    5.9667455402
